50
3238 6201 85 9829 8222 9991 2634 1995 548 1939 242 6918 3657 8156 7607 3494 1668 3477 303 6484 1898 1488 8885 4371 9461 9803 6640 2498 1478 2466 7367 5119 2980 175 3511 3928 694 2495 2955 4160 4940 5657 8496 2950 949 3032 2161 5757 4763 3211 
3237 6201 84 9828 8220 9990 2634 1995 546 1938 240 6918 3657 8154 7605 3492 1668 3477 303 6483 1896 1488 8883 4371 9459 9801 6639 2496 1476 2466 7365 5118 2979 174 3510 3927 693 2493 2955 4158 4938 5655 8496 2949 948 3030 2160 5757 4761 3210 
104443
